\ Model CornScheduler_v8_copy
\ LP format - for model browsing. Use MPS format to capture full model detail.
Minimize
 
Subject To
 R27: C193 + C194 + C195 + C196 + C197 + C198 + C199 + C200 + C201 = 1
 R40: C202 + C203 + C204 + C205 + C206 + C207 + C208 + C209 + C210 = 1
 R118: C256 + C257 + C258 + C259 + C260 + C261 + C262 + C263 + C264 = 1
 R170: C292 + C293 + C294 + C295 + C296 + C297 + C298 + C299 + C300 = 1
 R209: C319 + C320 + C321 + C322 + C323 + C324 + C325 + C326 + C327 = 1
 R235: C337 + C338 + C339 + C340 + C341 + C342 + C343 + C344 + C345 = 1
 R274: C364 + C365 + C366 + C367 + C368 + C369 + C370 + C371 + C372 = 1
 R339: 87.22774858383657 C175 + 54.75251357802613 C184
   + 101.8332884085435 C193 + 108.7902551826313 C202 + 40 C211
   + 50.01471682297505 C220 + 82.03470514648959 C229
   + 70.32922150437093 C238 + 78.0206287625772 C247
   + 58.40605543433634 C256 + 106.5012298403713 C265
   + 102.8055155561565 C274 + 80.2944751514944 C283
   + 116.0870192003857 C292 + 92.29987303719844 C301
   + 58.28003379439069 C310 + 89.18844028879477 C319
   + 56.30824120555002 C328 + 106.466149408193 C337
   + 77.12960203277937 C346 + 73.60481903316479 C355
   + 61.98788978146701 C364 + 120 C373 + 74.38272734463212 C382
   + 67.65131909431329 C391 <= 126
 R341: 87.22774858383657 C176 + 54.75251357802613 C185
   + 101.8332884085435 C194 + 108.7902551826313 C203 + 40 C212
   + 50.01471682297505 C221 + 82.03470514648959 C230
   + 70.32922150437093 C239 + 78.0206287625772 C248
   + 58.40605543433634 C257 + 106.5012298403713 C266
   + 102.8055155561565 C275 + 80.2944751514944 C284
   + 116.0870192003857 C293 + 92.29987303719844 C302
   + 58.28003379439069 C311 + 89.18844028879477 C320
   + 56.30824120555002 C329 + 106.466149408193 C338
   + 77.12960203277937 C347 + 73.60481903316479 C356
   + 61.98788978146701 C365 + 120 C374 + 74.38272734463212 C383
   + 67.65131909431329 C392 <= 126
 R343: 87.22774858383657 C177 + 54.75251357802613 C186
   + 101.8332884085435 C195 + 108.7902551826313 C204 + 40 C213
   + 50.01471682297505 C222 + 82.03470514648959 C231
   + 70.32922150437093 C240 + 78.0206287625772 C249
   + 58.40605543433634 C258 + 106.5012298403713 C267
   + 102.8055155561565 C276 + 80.2944751514944 C285
   + 116.0870192003857 C294 + 92.29987303719844 C303
   + 58.28003379439069 C312 + 89.18844028879477 C321
   + 56.30824120555002 C330 + 106.466149408193 C339
   + 77.12960203277937 C348 + 73.60481903316479 C357
   + 61.98788978146701 C366 + 120 C375 + 74.38272734463212 C384
   + 67.65131909431329 C393 <= 78.4
 R345: 87.22774858383657 C178 + 54.75251357802613 C187
   + 101.8332884085435 C196 + 108.7902551826313 C205 + 40 C214
   + 50.01471682297505 C223 + 82.03470514648959 C232
   + 70.32922150437093 C241 + 78.0206287625772 C250
   + 58.40605543433634 C259 + 106.5012298403713 C268
   + 102.8055155561565 C277 + 80.2944751514944 C286
   + 116.0870192003857 C295 + 92.29987303719844 C304
   + 58.28003379439069 C313 + 89.18844028879477 C322
   + 56.30824120555002 C331 + 106.466149408193 C340
   + 77.12960203277937 C349 + 73.60481903316479 C358
   + 61.98788978146701 C367 + 120 C376 + 74.38272734463212 C385
   + 67.65131909431329 C394 <= 126
 R347: 87.22774858383657 C179 + 54.75251357802613 C188
   + 101.8332884085435 C197 + 108.7902551826313 C206 + 40 C215
   + 50.01471682297505 C224 + 82.03470514648959 C233
   + 70.32922150437093 C242 + 78.0206287625772 C251
   + 58.40605543433634 C260 + 106.5012298403713 C269
   + 102.8055155561565 C278 + 80.2944751514944 C287
   + 116.0870192003857 C296 + 92.29987303719844 C305
   + 58.28003379439069 C314 + 89.18844028879477 C323
   + 56.30824120555002 C332 + 106.466149408193 C341
   + 77.12960203277937 C350 + 73.60481903316479 C359
   + 61.98788978146701 C368 + 120 C377 + 74.38272734463212 C386
   + 67.65131909431329 C395 <= 53.9
 R349: 87.22774858383657 C180 + 54.75251357802613 C189
   + 101.8332884085435 C198 + 108.7902551826313 C207 + 40 C216
   + 50.01471682297505 C225 + 82.03470514648959 C234
   + 70.32922150437093 C243 + 78.0206287625772 C252
   + 58.40605543433634 C261 + 106.5012298403713 C270
   + 102.8055155561565 C279 + 80.2944751514944 C288
   + 116.0870192003857 C297 + 92.29987303719844 C306
   + 58.28003379439069 C315 + 89.18844028879477 C324
   + 56.30824120555002 C333 + 106.466149408193 C342
   + 77.12960203277937 C351 + 73.60481903316479 C360
   + 61.98788978146701 C369 + 120 C378 + 74.38272734463212 C387
   + 67.65131909431329 C396 <= 8.4
 R351: 87.22774858383657 C181 + 54.75251357802613 C190
   + 101.8332884085435 C199 + 108.7902551826313 C208 + 40 C217
   + 50.01471682297505 C226 + 82.03470514648959 C235
   + 70.32922150437093 C244 + 78.0206287625772 C253
   + 58.40605543433634 C262 + 106.5012298403713 C271
   + 102.8055155561565 C280 + 80.2944751514944 C289
   + 116.0870192003857 C298 + 92.29987303719844 C307
   + 58.28003379439069 C316 + 89.18844028879477 C325
   + 56.30824120555002 C334 + 106.466149408193 C343
   + 77.12960203277937 C352 + 73.60481903316479 C361
   + 61.98788978146701 C370 + 120 C379 + 74.38272734463212 C388
   + 67.65131909431329 C397 <= 126
 R353: 87.22774858383657 C182 + 54.75251357802613 C191
   + 101.8332884085435 C200 + 108.7902551826313 C209 + 40 C218
   + 50.01471682297505 C227 + 82.03470514648959 C236
   + 70.32922150437093 C245 + 78.0206287625772 C254
   + 58.40605543433634 C263 + 106.5012298403713 C272
   + 102.8055155561565 C281 + 80.2944751514944 C290
   + 116.0870192003857 C299 + 92.29987303719844 C308
   + 58.28003379439069 C317 + 89.18844028879477 C326
   + 56.30824120555002 C335 + 106.466149408193 C344
   + 77.12960203277937 C353 + 73.60481903316479 C362
   + 61.98788978146701 C371 + 120 C380 + 74.38272734463212 C389
   + 67.65131909431329 C398 <= 53.9
 R355: 87.22774858383657 C183 + 54.75251357802613 C192
   + 101.8332884085435 C201 + 108.7902551826313 C210 + 40 C219
   + 50.01471682297505 C228 + 82.03470514648959 C237
   + 70.32922150437093 C246 + 78.0206287625772 C255
   + 58.40605543433634 C264 + 106.5012298403713 C273
   + 102.8055155561565 C282 + 80.2944751514944 C291
   + 116.0870192003857 C300 + 92.29987303719844 C309
   + 58.28003379439069 C318 + 89.18844028879477 C327
   + 56.30824120555002 C336 + 106.466149408193 C345
   + 77.12960203277937 C354 + 73.60481903316479 C363
   + 61.98788978146701 C372 + 120 C381 + 74.38272734463212 C390
   + 67.65131909431329 C399 <= 126
Bounds
Binaries
 C175 C176 C177 C178 C179 C180 C181 C182 C183 C184 C185 C186 C187 C188 C189
 C190 C191 C192 C193 C194 C195 C196 C197 C198 C199 C200 C201 C202 C203 C204
 C205 C206 C207 C208 C209 C210 C211 C212 C213 C214 C215 C216 C217 C218 C219
 C220 C221 C222 C223 C224 C225 C226 C227 C228 C229 C230 C231 C232 C233 C234
 C235 C236 C237 C238 C239 C240 C241 C242 C243 C244 C245 C246 C247 C248 C249
 C250 C251 C252 C253 C254 C255 C256 C257 C258 C259 C260 C261 C262 C263 C264
 C265 C266 C267 C268 C269 C270 C271 C272 C273 C274 C275 C276 C277 C278 C279
 C280 C281 C282 C283 C284 C285 C286 C287 C288 C289 C290 C291 C292 C293 C294
 C295 C296 C297 C298 C299 C300 C301 C302 C303 C304 C305 C306 C307 C308 C309
 C310 C311 C312 C313 C314 C315 C316 C317 C318 C319 C320 C321 C322 C323 C324
 C325 C326 C327 C328 C329 C330 C331 C332 C333 C334 C335 C336 C337 C338 C339
 C340 C341 C342 C343 C344 C345 C346 C347 C348 C349 C350 C351 C352 C353 C354
 C355 C356 C357 C358 C359 C360 C361 C362 C363 C364 C365 C366 C367 C368 C369
 C370 C371 C372 C373 C374 C375 C376 C377 C378 C379 C380 C381 C382 C383 C384
 C385 C386 C387 C388 C389 C390 C391 C392 C393 C394 C395 C396 C397 C398 C399
End
